NAME : grossezf\1c2b3b4a.knd
COMMENT : 
TYPE : CVRP
DIMENSION : 201
EDGE_WEIGHT_TYPE : EUC_2D
CAPACITY : 10100
CAPACITY_VOL : 50
NODE_COORD_TYPE : TWOD_COORDS
NODE_COORD_SECTION
1 23452 56766
2 24683 55828
3 24963 56421
4 24080 55346
5 23459 55231
6 23586 58296
7 24389 55556
8 23721 55258
9 23962 58219
10 23721 55258
11 23597 55243
12 24438 55643
13 23886 55333
14 23886 55333
15 24736 57494
16 23481 55299
17 23827 55331
18 24752 56085
19 23413 55304
20 23123 55335
21 23174 55328
22 24208 55539
23 23174 55328
24 23204 55333
25 24515 55785
26 24228 55564
27 24117 55487
28 23192 55340
29 23760 55356
30 24869 56524
31 23783 55369
32 23877 55397
33 24112 55506
34 24112 55506
35 23871 55405
36 24071 55468
37 24071 55468
38 23903 55424
39 24661 57475
40 24853 56635
41 23011 55420
42 24152 55569
43 24060 55502
44 23092 55416
45 23487 55387
46 23984 55481
47 24260 55668
48 23337 55391
49 24260 55668
50 24157 55613
51 23938 55491
52 23019 55479
53 24274 55699
54 23347 55426
55 22984 55510
56 23278 55454
57 23950 55529
58 24400 55834
59 23191 55456
60 24753 56509
61 23951 55541
62 24069 55623
63 24231 55726
64 23661 55488
65 23671 55497
66 22990 55555
67 23744 55520
68 23735 55543
69 24478 57476
70 24086 55715
71 24110 55726
72 23237 55540
73 23286 55548
74 24258 55842
75 23410 55543
76 23410 55543
77 23785 57952
78 23714 55581
79 23482 55556
80 23101 55593
81 23497 55559
82 23582 55584
83 24281 55891
84 24281 55891
85 24281 55891
86 23532 55595
87 23748 55625
88 24615 56802
89 24111 55810
90 23511 55610
91 24377 56090
92 24534 56331
93 24398 56142
94 24047 57717
95 23088 55688
96 23804 55676
97 23824 55686
98 23495 55640
99 23738 55670
100 23763 57856
101 23818 55698
102 24175 55914
103 23797 55695
104 24233 55986
105 24203 55959
106 24272 56012
107 23400 55668
108 23374 55671
109 23374 55671
110 23400 55668
111 23400 55668
112 23543 55674
113 23383 55687
114 24284 56074
115 24127 55913
116 24210 57532
117 23588 55702
118 24295 56102
119 24339 57337
120 24098 57611
121 23344 55732
122 23657 55759
123 23562 55754
124 24187 56055
125 24088 57571
126 24269 56175
127 24233 56129
128 23487 55763
129 23735 55794
130 23424 55771
131 23244 55801
132 23870 55876
133 23483 55802
134 23639 57712
135 23369 55819
136 23856 55894
137 24229 56252
138 24229 56252
139 24176 56171
140 24153 56170
141 24180 57250
142 24180 57250
143 24138 56215
144 24180 57250
145 23520 55892
146 23879 56006
147 23946 56063
148 23946 56063
149 23982 56088
150 23959 57453
151 23504 55911
152 23801 55970
153 24067 56193
154 24067 56193
155 23927 56073
156 24032 57316
157 23780 56048
158 23510 55984
159 23780 56048
160 23545 56018
161 24163 56989
162 22951 57293
163 24142 56528
164 24123 56700
165 23203 57370
166 23203 57370
167 23973 56395
168 23163 56220
169 23693 56256
170 23020 56429
171 23141 56324
172 23141 56324
173 23685 57245
174 23702 56303
175 23884 56491
176 23093 56414
177 23288 56294
178 23288 56294
179 23710 57167
180 23837 57028
181 23101 57028
182 23675 57133
183 23752 57053
184 23785 56568
185 23245 56479
186 23563 57097
187 23194 56531
188 23510 57108
189 23744 56811
190 23517 57048
191 23517 57048
192 23731 56705
193 23452 57042
194 23596 56954
195 23686 56735
196 23375 56964
197 23241 56777
198 23289 56817
199 23609 56729
200 23339 56756
201 23503 56845
DEMAND_SECTION
1 0 0
2 450 0
3 330 0
4 430 0
5 370 0
6 260 0
7 710 0
8 570 0
9 230 0
10 930 0
11 240 0
12 110 0
13 830 0
14 480 0
15 510 0
16 220 0
17 420 0
18 180 0
19 660 0
20 230 0
21 610 0
22 120 0
23 590 0
24 500 0
25 780 0
26 100 0
27 200 0
28 640 0
29 770 0
30 770 0
31 620 0
32 890 0
33 780 0
34 860 0
35 780 0
36 760 0
37 940 0
38 640 0
39 190 0
40 120 0
41 760 0
42 740 0
43 150 0
44 240 0
45 600 0
46 700 0
47 620 0
48 840 0
49 690 0
50 240 0
51 260 0
52 290 0
53 580 0
54 240 0
55 220 0
56 730 0
57 650 0
58 490 0
59 680 0
60 490 0
61 580 0
62 990 0
63 920 0
64 620 0
65 480 0
66 320 0
67 760 0
68 150 0
69 850 0
70 620 0
71 970 0
72 430 0
73 140 0
74 890 0
75 440 0
76 210 0
77 890 0
78 330 0
79 520 0
80 510 0
81 760 0
82 530 0
83 650 0
84 770 0
85 140 0
86 450 0
87 180 0
88 530 0
89 580 0
90 350 0
91 720 0
92 600 0
93 170 0
94 970 0
95 830 0
96 280 0
97 480 0
98 140 0
99 300 0
100 720 0
101 130 0
102 140 0
103 470 0
104 670 0
105 730 0
106 690 0
107 630 0
108 570 0
109 350 0
110 140 0
111 100 0
112 410 0
113 530 0
114 310 0
115 950 0
116 220 0
117 800 0
118 540 0
119 370 0
120 370 0
121 160 0
122 790 0
123 210 0
124 590 0
125 540 0
126 630 0
127 170 0
128 930 0
129 410 0
130 280 0
131 310 0
132 170 0
133 110 0
134 110 0
135 460 0
136 250 0
137 820 0
138 200 0
139 680 0
140 330 0
141 650 0
142 480 0
143 210 0
144 340 0
145 740 0
146 420 0
147 240 0
148 870 0
149 980 0
150 560 0
151 880 0
152 820 0
153 310 0
154 630 0
155 400 0
156 320 0
157 340 0
158 120 0
159 530 0
160 880 0
161 710 0
162 200 0
163 820 0
164 820 0
165 880 0
166 190 0
167 710 0
168 230 0
169 640 0
170 540 0
171 360 0
172 230 0
173 290 0
174 860 0
175 260 0
176 200 0
177 600 0
178 310 0
179 400 0
180 110 0
181 460 0
182 300 0
183 870 0
184 240 0
185 400 0
186 400 0
187 510 0
188 150 0
189 610 0
190 350 0
191 870 0
192 390 0
193 530 0
194 970 0
195 200 0
196 690 0
197 520 0
198 660 0
199 270 0
200 490 0
201 490 0
PICKUP_SECTION
1 0 0
2 0 0
3 0 0
4 0 0
5 0 0
6 0 0
7 0 0
8 0 0
9 0 0
10 0 0
11 0 0
12 0 0
13 0 0
14 0 0
15 0 0
16 0 0
17 0 0
18 0 0
19 0 0
20 0 0
21 0 0
22 0 0
23 0 0
24 0 0
25 0 0
26 0 0
27 0 0
28 0 0
29 0 0
30 0 0
31 0 0
32 0 0
33 0 0
34 0 0
35 0 0
36 0 0
37 0 0
38 0 0
39 0 0
40 0 0
41 0 0
42 0 0
43 0 0
44 0 0
45 0 0
46 0 0
47 0 0
48 0 0
49 0 0
50 0 0
51 0 0
52 0 0
53 0 0
54 0 0
55 0 0
56 0 0
57 0 0
58 0 0
59 0 0
60 0 0
61 0 0
62 0 0
63 0 0
64 0 0
65 0 0
66 0 0
67 0 0
68 0 0
69 0 0
70 0 0
71 0 0
72 0 0
73 0 0
74 0 0
75 0 0
76 0 0
77 0 0
78 0 0
79 0 0
80 0 0
81 0 0
82 0 0
83 0 0
84 0 0
85 0 0
86 0 0
87 0 0
88 0 0
89 0 0
90 0 0
91 0 0
92 0 0
93 0 0
94 0 0
95 0 0
96 0 0
97 0 0
98 0 0
99 0 0
100 0 0
101 0 0
102 0 0
103 0 0
104 0 0
105 0 0
106 0 0
107 0 0
108 0 0
109 0 0
110 0 0
111 0 0
112 0 0
113 0 0
114 0 0
115 0 0
116 0 0
117 0 0
118 0 0
119 0 0
120 0 0
121 0 0
122 0 0
123 0 0
124 0 0
125 0 0
126 0 0
127 0 0
128 0 0
129 0 0
130 0 0
131 0 0
132 0 0
133 0 0
134 0 0
135 0 0
136 0 0
137 0 0
138 0 0
139 0 0
140 0 0
141 0 0
142 0 0
143 0 0
144 0 0
145 0 0
146 0 0
147 0 0
148 0 0
149 0 0
150 0 0
151 0 0
152 0 0
153 0 0
154 0 0
155 0 0
156 0 0
157 0 0
158 0 0
159 0 0
160 0 0
161 0 0
162 0 0
163 0 0
164 0 0
165 0 0
166 0 0
167 0 0
168 0 0
169 0 0
170 0 0
171 0 0
172 0 0
173 0 0
174 0 0
175 0 0
176 0 0
177 0 0
178 0 0
179 0 0
180 0 0
181 0 0
182 0 0
183 0 0
184 0 0
185 0 0
186 0 0
187 0 0
188 0 0
189 0 0
190 0 0
191 0 0
192 0 0
193 0 0
194 0 0
195 0 0
196 0 0
197 0 0
198 0 0
199 0 0
200 0 0
201 0 0
TIME_WINDOW_SECTION
2  7:00 14:30
3  7:00 18:00
4  7:00 18:00
5  7:00 18:00
6  7:00 18:00
7  8:30 15:15
8  7:30 13:00
9  7:00 18:00
10  9:45 14:30
11  7:30 14:00
12  7:00 18:00
13  7:00 18:00
14  7:00 18:00
15  7:00 18:00
16  7:45 15:00
17  7:00 12:45
18  7:00 18:00
19  9:30 15:00
20  7:00 18:00
21  7:00 18:00
22  7:00 18:00
23  8:30 13:00
24  7:30 15:30
25  7:00 18:00
26  7:00 18:00
27  7:00 18:00
28  7:00 18:00
29  7:15 12:30
30  7:00 18:00
31  7:45 12:30
32  8:00 14:30
33  8:00 14:30
34  7:15 14:30
35  7:00 18:00
36  7:15 14:45
37  7:00 18:00
38  7:00 12:45
39  8:45 13:30
40  9:15 14:30
41 10:30 15:30
42  7:00 18:00
43  7:00 18:00
44  7:00 18:00
45  7:00 18:00
46  8:30 13:45
47  9:15 14:30
48  7:30 14:30
49  7:00 18:00
50  7:00 18:00
51  7:15 14:30
52 10:15 15:45
53  7:00 13:45
54  8:00 15:15
55  7:00 18:00
56  7:00 18:00
57  7:00 18:00
58  7:45 12:00
59  7:00 18:00
60  7:00 18:00
61  7:00 18:00
62  7:00 18:00
63  7:00 18:00
64  7:00 18:00
65  7:00 18:00
66  8:45 13:00
67  8:30 15:00
68  7:45 14:00
69  7:00 18:00
70  8:00 13:00
71  7:00 13:15
72  7:00 18:00
73  7:00 18:00
74  7:00 18:00
75  7:00 15:00
76  7:30 15:30
77  7:00 18:00
78 10:15 14:30
79  9:45 15:00
80  7:00 18:00
81  7:00 18:00
82  8:00 12:15
83  7:00 18:00
84  7:00 18:00
85  7:00 18:00
86  7:45 14:45
87  7:00 18:00
88  7:00 18:00
89  7:00 18:00
90  7:00 18:00
91  7:00 18:00
92  9:00 15:45
93  8:45 15:45
94  8:15 13:30
95  7:45 15:30
96  7:00 18:00
97  7:00 13:45
98  7:00 18:00
99  8:30 13:45
100  9:30 15:15
101  7:00 18:00
102 10:30 16:00
103  7:00 18:00
104  8:30 15:00
105  7:00 14:45
106  7:00 18:00
107  8:30 15:00
108  7:00 18:00
109  9:30 14:00
110  8:45 15:00
111  9:30 14:45
112  7:00 18:00
113  7:00 18:00
114  8:30 14:45
115  7:00 18:00
116  8:00 15:45
117 10:15 14:45
118  8:30 14:00
119  7:00 14:00
120  7:30 14:45
121  8:00 13:00
122  7:00 18:00
123  7:00 18:00
124  8:00 15:45
125  7:00 18:00
126  7:00 18:00
127  8:30 16:15
128  7:00 18:00
129  7:00 18:00
130 10:15 14:45
131  7:00 18:00
132  7:00 18:00
133  7:00 18:00
134 11:00 16:15
135  7:00 18:00
136  8:00 15:30
137  7:00 18:00
138  7:00 18:00
139  7:00 18:00
140  8:00 14:15
141  9:45 14:30
142  7:00 18:00
143  8:30 12:45
144  8:00 15:00
145  8:30 14:30
146  7:00 18:00
147  8:00 15:00
148  7:00 18:00
149  8:00 16:00
150  7:00 18:00
151  7:00 18:00
152  8:15 15:45
153  8:45 16:15
154  9:00 14:00
155  8:00 14:45
156  8:45 16:15
157 11:00 15:45
158  7:00 18:00
159  7:30 13:45
160  8:00 13:15
161  7:45 14:15
162  9:45 15:15
163  8:00 13:30
164  7:45 14:30
165  7:00 18:00
166  7:45 15:45
167 10:00 16:00
168  7:00 18:00
169 11:00 16:30
170  7:00 18:00
171  7:00 18:00
172  7:00 18:00
173 10:30 15:45
174  7:00 13:15
175  7:00 18:00
176  7:45 13:00
177  8:00 16:00
178 11:15 16:00
179  9:30 16:00
180 10:45 15:45
181  7:00 18:00
182  7:30 14:30
183  7:00 18:00
184  7:00 18:00
185  7:00 18:00
186  7:00 18:00
187  7:00 18:00
188  7:00 18:00
189  7:30 12:30
190  8:00 15:15
191  7:45 15:45
192  7:00 18:00
193  7:00 18:00
194  7:00 13:00
195  7:15 12:45
196 10:45 17:00
197  7:45 15:45
198 11:15 17:15
199  7:00 18:00
200  7:00 18:00
201  7:15 11:45
STANDTIME_SECTION
2 9
3 8
4 9
5 8
6 7
7 12
8 10
9 7
10 14
11 7
12 6
13 13
14 9
15 10
16 7
17 9
18 6
19 11
20 7
21 11
22 6
23 10
24 10
25 12
26 6
27 7
28 11
29 12
30 12
31 11
32 13
33 12
34 13
35 12
36 12
37 14
38 11
39 6
40 6
41 12
42 12
43 6
44 7
45 11
46 12
47 11
48 13
49 11
50 7
51 7
52 7
53 10
54 7
55 7
56 12
57 11
58 9
59 11
60 9
61 10
62 14
63 14
64 11
65 9
66 8
67 12
68 6
69 13
70 11
71 14
72 9
73 6
74 13
75 9
76 7
77 13
78 8
79 10
80 10
81 12
82 10
83 11
84 12
85 6
86 9
87 6
88 10
89 10
90 8
91 12
92 11
93 6
94 14
95 13
96 7
97 9
98 6
99 8
100 12
101 6
102 6
103 9
104 11
105 12
106 11
107 11
108 10
109 8
110 6
111 6
112 9
113 10
114 8
115 14
116 7
117 13
118 10
119 8
120 8
121 6
122 12
123 7
124 10
125 10
126 11
127 6
128 14
129 9
130 7
131 8
132 6
133 6
134 6
135 9
136 7
137 13
138 7
139 11
140 8
141 11
142 9
143 7
144 8
145 12
146 9
147 7
148 13
149 14
150 10
151 13
152 13
153 8
154 11
155 9
156 8
157 8
158 6
159 10
160 13
161 12
162 7
163 13
164 13
165 13
166 6
167 12
168 7
169 11
170 10
171 8
172 7
173 7
174 13
175 7
176 7
177 11
178 8
179 9
180 6
181 9
182 8
183 13
184 7
185 9
186 9
187 10
188 6
189 11
190 8
191 13
192 8
193 10
194 14
195 7
196 11
197 10
198 11
199 7
200 9
201 9
DEPOT_SECTION
1
-1
EOF
